FILENAME:   /home/mcs001/s132664/testsets/IP/miplib2010/mspp16.mps.gz
SETTINGS:   settings_final_nosym_norestarts
TIMELIMIT:  7200
OUTPUTNAME: final_miplib_symretope_if_extended_generating_set_cpx_v802__settings_final_nosym_norestarts__2__
BINNAME:    bin/sbcs.linux.x86_64.gnu.opt.cpx
BASENAME:   mspp16.mps.gz
SEED:       2
@01 /home/mcs001/s132664/testsets/IP/miplib2010/mspp16.mps.gz ===========
@02 mspp16.mps.gz
@03 1686656480
SCIP version 8.0.2 [precision: 8 byte] [memory: block] [mode: optimized] [LP solver: CPLEX 20.1.0.0] [GitHash: 5f0473c]
Copyright (C) 2002-2022 Konrad-Zuse-Zentrum fuer Informationstechnik Berlin (ZIB)

Symretope propagation methods - (c) Jasper van Doornmalen, Christopher Hojny.
[GitHash: 2fd0484]

reading parameter file <../settings/settings_final_nosym_norestarts.set> ...

Changed settings:
limits/time = 7200
limits/restarts = 0
misc/usesymmetry = 0
randomization/randomseedshift = 2
constraints/orbisack/sepafreq = -1
constraints/symresack/sepafreq = -1
propagating/symmetry/detectsubgroups = FALSE
propagating/symmetry/usesymretopes = FALSE
propagating/symmetry/relabelsymretopes = 0
propagating/symmetry/ofsymcomptiming = 0
constraints/symretope/sepafreq = -1
constraints/symretope/peek = FALSE


solving problem ...

original problem has 29280 variables (29280 bin, 0 int, 0 impl, 0 cont) and 561657 constraints
presolving:
(round 1, fast)       25215 del vars, 36781 del conss, 0 add conss, 25215 chg bounds, 991 chg sides, 0 chg coeffs, 0 upgd conss, 0 impls, 1726 clqs
(round 2, exhaustive) 25215 del vars, 36843 del conss, 0 add conss, 25215 chg bounds, 991 chg sides, 0 chg coeffs, 524798 upgd conss, 0 impls, 1726 clqs
(round 3, medium)     25215 del vars, 37053 del conss, 210 add conss, 25215 chg bounds, 1201 chg sides, 3360 chg coeffs, 524798 upgd conss, 0 impls, 1935 clqs
   (50.7s) sparsify aborted: 480/27555495 (0.0%) nonzeros canceled - in total 480 canceled nonzeros, 480 changed coefficients, 0 added nonzeros
   (64.1s) probing: 51/4065 (1.3%) - 0 fixings, 0 aggregations, 0 implications, 0 bound changes
   (64.1s) probing aborted: 50/50 successive totally useless probings
presolving (4 rounds: 4 fast, 3 medium, 2 exhaustive):
 25215 deleted vars, 37053 deleted constraints, 210 added constraints, 25215 tightened bounds, 0 added holes, 1201 changed sides, 4080 changed coefficients
 0 implications, 1935 cliques
presolved problem has 4065 variables (4065 bin, 0 int, 0 impl, 0 cont) and 524814 constraints
 522862 constraints of type <knapsack>
   1936 constraints of type <setppc>
     16 constraints of type <linear>
transformed objective value is always integral (scale: 11)
Presolving Time: 65.55

 time | node  | left  |LP iter|LP it/n|mem/heur|mdpt |vars |cons |rows |cuts |sepa|confs|strbr|  dualbound   | primalbound  |  gap   | compl. 
  200s|     1 |     0 |     2 |     - |  8496M |   0 |4065 | 524k| 524k|   0 |  0 |  67 |   0 | 3.410000e+02 |      --      |    Inf | unknown
r 201s|     1 |     0 |     2 |     - |shifting|   0 |4065 | 524k| 524k|   0 |  0 |  67 |   0 | 3.410000e+02 | 3.630000e+02 |   6.45%| unknown
  204s|     1 |     0 |    13 |     - |  8555M |   0 |4065 | 524k| 524k|   4 |  1 |  67 |   0 | 3.410000e+02 | 3.630000e+02 |   6.45%| unknown
  210s|     1 |     0 |    44 |     - |  8612M |   0 |4065 | 524k| 524k|  10 |  2 |  67 |   0 | 3.410000e+02 | 3.630000e+02 |   6.45%| unknown
  215s|     1 |     0 |    70 |     - |  8668M |   0 |4065 | 524k| 524k|  15 |  3 |  67 |   0 | 3.410000e+02 | 3.630000e+02 |   6.45%| unknown
  220s|     1 |     0 |    85 |     - |  8725M |   0 |4065 | 524k| 524k|  21 |  4 |  67 |   0 | 3.410000e+02 | 3.630000e+02 |   6.45%| unknown
  226s|     1 |     0 |   103 |     - |  8782M |   0 |4065 | 524k| 524k|  27 |  5 |  67 |   0 | 3.410000e+02 | 3.630000e+02 |   6.45%| unknown
  231s|     1 |     0 |   126 |     - |  8838M |   0 |4065 | 524k| 524k|  34 |  6 |  67 |   0 | 3.410000e+02 | 3.630000e+02 |   6.45%| unknown
  237s|     1 |     0 |   157 |     - |  8895M |   0 |4065 | 524k| 524k|  41 |  7 |  67 |   0 | 3.410000e+02 | 3.630000e+02 |   6.45%| unknown
  242s|     1 |     0 |   186 |     - |  8952M |   0 |4065 | 524k| 524k|  48 |  8 |  67 |   0 | 3.410000e+02 | 3.630000e+02 |   6.45%| unknown
  248s|     1 |     0 |   228 |     - |  9009M |   0 |4065 | 524k| 524k|  56 |  9 |  67 |   0 | 3.410000e+02 | 3.630000e+02 |   6.45%| unknown
  252s|     1 |     0 |   262 |     - |  9065M |   0 |4065 | 524k| 524k|  65 | 10 |  67 |   0 | 3.410000e+02 | 3.630000e+02 |   6.45%| unknown
  263s|     1 |     0 |   293 |     - |  9122M |   0 |4065 | 524k| 524k|  74 | 11 |  67 |   0 | 3.410000e+02 | 3.630000e+02 |   6.45%| unknown
  440s|     1 |     2 |   308 |     - |  9132M |   0 |4065 | 524k| 524k|  74 | 11 |  69 |  31 | 3.410000e+02 | 3.630000e+02 |   6.45%| unknown

SCIP Status        : problem is solved [optimal solution found]
Solving Time (sec) : 3306.38
Solving Nodes      : 51
Primal Bound       : +3.63000000000000e+02 (52 solutions)
Dual Bound         : +3.63000000000000e+02
Gap                : 0.00 %
SCIP Status        : problem is solved [optimal solution found]
Total Time         :    3339.17
  solving          :    3306.38
  presolving       :      65.55 (included in solving)
  reading          :      32.79
  copying          :       4.41 (2 #copies) (minimal 2.12, maximal 2.28, average 2.20)
Original Problem   :
  Problem name     : mspp16
  Variables        : 29280 (29280 binary, 0 integer, 0 implicit integer, 0 continuous)
  Constraints      : 561657 initial, 561657 maximal
  Objective        : minimize, 4065 non-zeros (abs.min = 11, abs.max = 11)
Presolved Problem  :
  Problem name     : t_mspp16
  Variables        : 4065 (4065 binary, 0 integer, 0 implicit integer, 0 continuous)
  Constraints      : 524814 initial, 525424 maximal
  Objective        : minimize, 3585 non-zeros (abs.min = 1, abs.max = 1)
  Nonzeros         : 27555015 constraint, 11173 clique table
Presolvers         :   ExecTime  SetupTime  Calls  FixedVars   AggrVars   ChgTypes  ChgBounds   AddHoles    DelCons    AddCons   ChgSides   ChgCoefs
  boundshift       :       0.00       0.00      0          0          0          0          0          0          0          0          0          0
  convertinttobin  :       0.00       0.00      0          0          0          0          0          0          0          0          0          0
  domcol           :       2.60       0.00      1          0          0          0          0          0          0          0          0          0
  dualagg          :       0.00       0.00      0          0          0          0          0          0          0          0          0          0
  dualcomp         :       0.00       0.00      0          0          0          0          0          0          0          0          0          0
  dualinfer        :       0.00       0.00      0          0          0          0          0          0          0          0          0          0
  dualsparsify     :       5.47       0.00      1          0          0          0          0          0          0          0          0          0
  gateextraction   :       0.00       0.00      0          0          0          0          0          0          0          0          0          0
  implics          :       0.00       0.00      3          0          0          0          0          0          0          0          0          0
  inttobinary      :       0.00       0.00      0          0          0          0          0          0          0          0          0          0
  qpkktref         :       0.00       0.00      0          0          0          0          0          0          0          0          0          0
  redvub           :       0.00       0.00      0          0          0          0          0          0          0          0          0          0
  sparsify         :       4.20       0.00      1          0          0          0          0          0          0          0          0        480
  stuffing         :       0.00       0.00      0          0          0          0          0          0          0          0          0          0
  trivial          :       0.00       0.00      4          0          0          0          0          0          0          0          0          0
  tworowbnd        :       0.00       0.00      0          0          0          0          0          0          0          0          0          0
  dualfix          :       0.00       0.00      4          0          0          0          0          0          0          0          0          0
  genvbounds       :       0.00       0.00      0          0          0          0          0          0          0          0          0          0
  probing          :      13.44       0.00      1          0          0          0          0          0          0          0          0          0
  pseudoobj        :       0.00       0.00      0          0          0          0          0          0          0          0          0          0
  symmetry         :       0.00       0.00      0          0          0          0          0          0          0          0          0          0
  vbounds          :       0.00       0.00      2          0          0          0          0          0          0          0          0          0
  knapsack         :      22.07       0.24      5          0          0          0          0          0        210        210        210       3600
  setppc           :       0.01       0.00      5          0          0          0          0          0          0          0          0          0
  linear           :      12.73       4.65      6      25215          0          0      25215          0      36843          0        991          0
  logicor          :       0.00       0.00      0          0          0          0          0          0          0          0          0          0
  benders          :       0.00       0.00      0          0          0          0          0          0          0          0          0          0
  components       :       2.18       0.00      1          0          0          0          0          0          0          0          0          0
  root node        :          -          -      -        196          -          -        196          -          -          -          -          -
Constraints        :     Number  MaxNumber  #Separate #Propagate    #EnfoLP    #EnfoRelax  #EnfoPS    #Check   #ResProp    Cutoffs    DomReds       Cuts    Applied      Conss   Children
  benderslp        :          0          0          0          0        393          0          0         72          0          0          0          0          0          0          0
  integral         :          0          0          0          0        393          0          0         72          0          0       1888          0          0       2041         50
  knapsack         :     522862     522862         11      13955          0          0          0         67       8324         48      14004        148          5          0          0
  setppc           :       1936+      2168         11      13907          0          0          0         54       3056         75       4906          0          0          0          0
  linear           :         16         16         11      12809          0          0          0         52          0          0          0          0          0          0          0
  logicor          :          0+       407         11       2198          0          0          0          0        505         38        180          0          0          0          0
  benders          :          0          0          0          0          0          0          0         53          0          0          0          0          0          0          0
  countsols        :          0          0          0          0          0          0          0         53          0          0          0          0          0          0          0
  components       :          0          0          0          0          0          0          0          0          0          0          0          0          0          0          0
Constraint Timings :  TotalTime  SetupTime   Separate  Propagate     EnfoLP     EnfoPS     EnfoRelax   Check    ResProp    SB-Prop
  benderslp        :       0.00       0.00       0.00       0.00       0.00       0.00       0.00       0.00       0.00       0.00
  integral         :    2389.94       0.00       0.00       0.00    2389.93       0.00       0.00       0.01       0.00       0.00
  knapsack         :     212.24       0.24      10.69      91.47       0.00       0.00       0.00      24.77       0.01      85.05
  setppc           :      58.95       0.00       0.00      24.36       0.00       0.00       0.00       0.04       0.00      34.55
  linear           :       4.71       4.65       0.00       0.03       0.00       0.00       0.00       0.02       0.00       0.02
  logicor          :       2.84       0.00       0.00       0.50       0.00       0.00       0.00       0.00       0.00       2.34
  benders          :       0.00       0.00       0.00       0.00       0.00       0.00       0.00       0.00       0.00       0.00
  countsols        :       0.00       0.00       0.00       0.00       0.00       0.00       0.00       0.00       0.00       0.00
  components       :       0.00       0.00       0.00       0.00       0.00       0.00       0.00       0.00       0.00       0.00
Propagators        : #Propagate   #ResProp    Cutoffs    DomReds
  dualfix          :          1          0          0          0
  genvbounds       :          0          0          0          0
  nlobbt           :          0          0          0          0
  obbt             :          0          0          0          0
  probing          :          0          0          0          0
  pseudoobj        :       1097          5          0       3001
  redcost          :        871          0          0      68198
  rootredcost      :          1          0          0          0
  symmetry         :          0          0          0          0
  vbounds          :       2420          0          0          0
Propagator Timings :  TotalTime  SetupTime   Presolve  Propagate    ResProp    SB-Prop
  dualfix          :       0.00       0.00       0.00       0.00       0.00       0.00
  genvbounds       :       0.01       0.00       0.00       0.00       0.00       0.00
  nlobbt           :       0.00       0.00       0.00       0.00       0.00       0.00
  obbt             :       0.00       0.00       0.00       0.00       0.00       0.00
  probing          :      13.44       0.00      13.44       0.00       0.00       0.00
  pseudoobj        :       7.65       0.00       0.00       7.64       0.00       0.00
  redcost          :     184.25       0.00       0.00     184.25       0.00       0.00
  rootredcost      :       0.01       0.00       0.00       0.00       0.00       0.00
  symmetry         :       0.00       0.00       0.00       0.00       0.00       0.00
  vbounds          :       0.02       0.00       0.00       0.01       0.00       0.01
Conflict Analysis  :       Time      Calls    Success    DomReds  Conflicts   Literals    Reconvs ReconvLits   Dualrays   Nonzeros   LP Iters   (pool size: [10000,10000])
  propagation      :       0.01        158        139          -        287       50.8         11        6.8          -          -          -
  infeasible LP    :       0.08         17         17          -         60      171.8          0        0.0          0        0.0          0
  bound exceed. LP :     694.05       1545       1668          -       2010        9.6         15       18.7        123        1.0       3245
  strong branching :       0.00          0          0          -          0        0.0          0        0.0          -          -          0
  pseudo solution  :       0.00          0          0          -          0        0.0          0        0.0          -          -          -
  applied globally :       0.05          -          -        123       2170       11.4          -          -        123          -          -
  applied locally  :          -          -          -          0          0        0.0          -          -          0          -          -
Separators         :   ExecTime  SetupTime      Calls  RootCalls    Cutoffs    DomReds  FoundCuts ViaPoolAdd  DirectAdd    Applied ViaPoolApp  DirectApp      Conss
  cut pool         :       0.04          -         63         21          -          -       1111        658          -          -          -          -          -    (maximal pool size:       1111)
  aggregation      :       5.84       0.00         42         11          0          0        155        240          0        106        106          0          0
  > cmir           :          -          -          -          -          -          -          -         70          0         35         35          0          -
  > flowcover      :          -          -          -          -          -          -          -         80          0          2          2          0          -
  > knapsackcover  :          -          -          -          -          -          -          -         90          0         69         69          0          -
  cgmip            :       0.00       0.00          0          0          0          0          0          0          0          0          0          0          0
  clique           :       0.02       0.00         11         11          0          0          0          0          0          0          0          0          0
  closecuts        :       0.00       0.00          0          0          0          0          0          0          0          0          0          0          0
  convexproj       :       0.00       0.00          0          0          0          0          0          0          0          0          0          0          0
  disjunctive      :       0.00       0.00          0          0          0          0          0          0          0          0          0          0          0
  eccuts           :       0.00       0.00          0          0          0          0          0          0          0          0          0          0          0
  gauge            :       0.00       0.00          0          0          0          0          0          0          0          0          0          0          0
  gomory           :       6.79       0.00         18         10          0          0        928        384          0          9          9          0          0
  > gomorymi       :          -          -          -          -          -          -          -        316          0          4          4          0          -
  > strongcg       :          -          -          -          -          -          -          -         68          0          5          5          0          -
  impliedbounds    :      10.24       0.00         42         11          0          0          0          0          0          0          0          0          0
  interminor       :       0.00       0.00          0          0          0          0          0          0          0          0          0          0          0
  intobj           :       0.00       0.00          0          0          0          0          0          0          0          0          0          0          0
  mcf              :       0.00       0.00          0          0          0          0          0          0          0          0          0          0          0
  minor            :       0.00       0.00          0          0          0          0          0          0          0          0          0          0          0
  mixing           :       0.00       0.00          0          0          0          0          0          0          0          0          0          0          0
  oddcycle         :       0.00       0.00          0          0          0          0          0          0          0          0          0          0          0
  rapidlearning    :       0.53       0.00          0          0          0          0          0          0          0          0          0          0          0
  rlt              :       0.00       0.00         10         10          0          0          0          0          0          0          0          0          0
  zerohalf         :       0.60       0.00         19         11          0          0         28         34          0          8          8          0          0
Cutselectors       :   ExecTime  SetupTime      Calls  RootCalls   Selected     Forced   Filtered  RootSelec   RootForc   RootFilt 
  hybrid           :       0.00       0.00         35         11        128          0        678         74          0        346
Pricers            :   ExecTime  SetupTime      Calls       Vars
  problem variables:       0.00          -          0          0
Branching Rules    :   ExecTime  SetupTime   BranchLP  BranchExt   BranchPS    Cutoffs    DomReds       Cuts      Conss   Children
  allfullstrong    :       0.00       0.00          0          0          0          0          0          0          0          0
  cloud            :       0.00       0.00          0          0          0          0          0          0          0          0
  distribution     :       0.00       0.00          0          0          0          0          0          0          0          0
  fullstrong       :       0.00       0.00          0          0          0          0          0          0          0          0
  inference        :       0.00       0.00          0          0          0          0          0          0          0          0
  leastinf         :       0.00       0.00          0          0          0          0          0          0          0          0
  lookahead        :       0.00       0.00          0          0          0          0          0          0          0          0
  mostinf          :       0.00       0.00          0          0          0          0          0          0          0          0
  multaggr         :       0.00       0.00          0          0          0          0          0          0          0          0
  nodereopt        :       0.00       0.00          0          0          0          0          0          0          0          0
  pscost           :       0.00       0.00          0          0          0          0          0          0          0          0
  random           :       0.00       0.00          0          0          0          0          0          0          0          0
  relpscost        :    2389.93       0.00        393          0          0          0       1888          0       2046         50
  vanillafullstrong:       0.00       0.00          0          0          0          0          0          0          0          0
Primal Heuristics  :   ExecTime  SetupTime      Calls      Found       Best
  LP solutions     :       0.00          -          -          0          0
  relax solutions  :       0.00          -          -          0          0
  pseudo solutions :       0.00          -          -          0          0
  strong branching :       0.01          -          -          0          0
  actconsdiving    :       0.00       0.00          0          0          0
  adaptivediving   :       0.00       0.00          0          0          0
  alns             :       7.94       0.00          1          0          0
  bound            :       0.00       0.00          0          0          0
  clique           :      18.58       0.00          1          0          0
  coefdiving       :       0.00       0.00          0          0          0
  completesol      :       0.00       0.00          0          0          0
  conflictdiving   :       5.57       0.00          1          0          0
  crossover        :       0.00       0.00          0          0          0
  dins             :       0.00       0.00          0          0          0
  distributiondivin:       0.02       0.00          0          0          0
  dps              :       0.00       0.00          0          0          0
  dualval          :       0.00       0.00          0          0          0
  farkasdiving     :       0.00       0.00          0          0          0
  feaspump         :       0.00       0.00          0          0          0
  fixandinfer      :       0.00       0.00          0          0          0
  fracdiving       :       0.00       0.00          0          0          0
  gins             :       0.00       0.00          0          0          0
  guideddiving     :       0.00       0.00          0          0          0
  indicator        :       0.00       0.00          0          0          0
  intdiving        :       0.00       0.00          0          0          0
  intshifting      :       0.00       0.00          0          0          0
  linesearchdiving :       0.00       0.00          0          0          0
  localbranching   :       0.00       0.00          0          0          0
  locks            :      29.95       0.00          1          0          0
  lpface           :      24.23       0.00          1          0          0
  mpec             :       0.00       0.00          0          0          0
  multistart       :       0.00       0.00          0          0          0
  mutation         :       0.00       0.00          0          0          0
  nlpdiving        :       0.00       0.00          0          0          0
  objpscostdiving  :       0.00       0.00          0          0          0
  octane           :       0.00       0.00          0          0          0
  ofins            :       0.00       0.00          0          0          0
  oneopt           :       0.38       0.00          1          0          0
  padm             :       0.00       0.00          0          0          0
  proximity        :       0.00       0.00          0          0          0
  pscostdiving     :       0.00       0.00          0          0          0
  randrounding     :      14.16       0.00         12          0          0
  rens             :       3.28       0.00          1          0          0
  reoptsols        :       0.00       0.00          0          0          0
  repair           :       0.00       0.00          0          0          0
  rins             :       0.00       0.00          0          0          0
  rootsoldiving    :       0.00       0.00          0          0          0
  rounding         :       5.42       0.00        232          0          0
  shiftandpropagate:      26.47       0.00          1          0          0
  shifting         :      27.35       0.00         62         52          1
  simplerounding   :       0.00       0.00          0          0          0
  subnlp           :       0.00       0.00          0          0          0
  trivial          :       0.67       0.00          2          0          0
  trivialnegation  :       0.00       0.00          0          0          0
  trustregion      :       0.00       0.00          0          0          0
  trysol           :       0.00       0.00          0          0          0
  twoopt           :       0.00       0.00          0          0          0
  undercover       :       0.00       0.00          0          0          0
  vbounds          :      28.20       0.00          1          0          0
  veclendiving     :       0.00       0.00          0          0          0
  zeroobj          :       0.00       0.00          0          0          0
  zirounding       :       0.57       0.00         25          0          0
  other solutions  :          -          -          -          0          -
LP                 :       Time      Calls Iterations  Iter/call   Iter/sec  Time-0-It Calls-0-It    ItLimit
  primal LP        :      26.03          9          0       0.00       0.00      26.03          9
  dual LP          :     279.29        481       4248       9.70      15.21       8.12         43
  lex dual LP      :       0.00          0          0       0.00          -
  barrier LP       :       0.00          0          0       0.00          -       0.00          0
  resolve instable :       0.00          0          0       0.00          -
  diving/probing LP:     135.87         19        116       6.11       0.85
  strong branching :    1299.43       1917      30391      15.85      23.39          -          -         42
    (at root node) :          -         31       1296      41.81          -
  conflict analysis:     682.81        327       3245       9.92       4.75
B&B Tree           :
  number of runs   :          1
  nodes            :         51 (25 internal, 26 leaves)
  feasible leaves  :          0
  infeas. leaves   :         24
  objective leaves :          2
  nodes (total)    :         51 (25 internal, 26 leaves)
  nodes left       :          0
  max depth        :         18
  max depth (total):         18
  backtracks       :          6 (11.8%)
  early backtracks :          0 (0.0%)
  nodes exc. ref.  :          0 (0.0%)
  delayed cutoffs  :          0
  repropagations   :         16 (7 domain reductions, 0 cutoffs)
  avg switch length:       6.63
  switching time   :      24.56
Root Node          :
  First LP value   : +3.41000000000000e+02
  First LP Iters   :          2 (0.08 Iter/sec)
  First LP Time    :      23.81
  Final Dual Bound : +3.41000000000000e+02
  Final Root Iters :        293
  Root LP Estimate : +3.41370290338618e+02
Solution           :
  Solutions found  :         52 (1 improvements)
  First Solution   : +3.63000000000000e+02   (in run 1, after 1 nodes, 200.63 seconds, depth 0, found by <shifting>)
  Gap First Sol.   :       6.45 %
  Gap Last Sol.    :       6.45 %
  Primal Bound     : +3.63000000000000e+02   (in run 1, after 1 nodes, 200.63 seconds, depth 0, found by <shifting>)
  Dual Bound       : +3.63000000000000e+02
  Gap              :       0.00 %
Integrals          :      Total       Avg%
  primal-dual      :   38926.92      11.77
  primal-ref       :          -          - (not evaluated)
  dual-ref         :          -          - (not evaluated)
written solution information to file <results/final_miplib_symretope_if_extended_generating_set_cpx_v802__settings_final_nosym_norestarts__2__mspp16.mps.gz.sol>
@04 1686659832
